(set-logic QF_BV)
(declare-fun _substvar_237_ () (_ BitVec 111))
(declare-fun _substvar_200_ () (_ BitVec 111))
(declare-fun _substvar_306_ () Bool)
(declare-fun _substvar_215_ () (_ BitVec 111))
(declare-fun _substvar_186_ () (_ BitVec 111))
(assert (and true true true true true true true true true true true true true true true true true true true true true true true true true true true true true true true true true true true true true true true true true true true true true true true true true true true true true true true true true true true true true true true true true true true true true true true true true true true true true true true true true true true true true true true true true true true true true true true true true true true true true true true true true true true true true true true true true true true true true true true true true true true true (= _substvar_186_ (_ bv0 111)) (ite _substvar_306_ (= _substvar_237_ (_ bv0 111)) (= _substvar_237_ (concat (_ bv0 110) (bvxor (_ bv0 1) ((_ extract 100 100) _substvar_186_))))) (= _substvar_200_ (concat ((_ extract 109 0) _substvar_237_) (bvxor ((_ extract 110 110) _substvar_237_) ((_ extract 100 100) _substvar_237_)))) (= _substvar_215_ (concat ((_ extract 109 0) _substvar_200_) (_ bv0 1))) true true true true true true true true true true true true true true true true true true true true true true true true true true true true true true true true true true true true true true true true true true true true true true true true true true true true true true true true true true true true true true true true true true true true true true true true true true true true true true true true true true true true true true true true true true true true true true true true true true true true true true true true true true true true true true true true true true true true true true true true true true true true true true true true true true true true true true true true true true (= (or false false false (= _substvar_215_ (_ bv0 111)) false false) false)))
(check-sat)
(exit)
